
Gurobi 6.5.1 (win64) logging started 04/04/16 18:37:19

Warning: variable name ":_to_E00" has a colon
Warning: constraint name ":_mapped_once" has a colon
Warning: to let Gurobi read it back, use rlp format
Optimize a model with 202 rows, 9360 columns and 18720 nonzeros
Coefficient statistics:
  Matrix range    [1e+00, 1e+00]
  Objective range [5e-02, 1e-01]
  Bounds range    [1e+00, 1e+00]
  RHS range       [1e+00, 1e+00]
Found heuristic solution: objective 6.0018
Presolve time: 0.05s
Presolved: 202 rows, 9360 columns, 18720 nonzeros
Variable types: 0 continuous, 9360 integer (9360 binary)

Root relaxation: objective 5.134563e+00, 432 iterations, 0.03 seconds

    Nodes    |    Current Node    |     Objective Bounds      |     Work
 Expl Unexpl |  Obj  Depth IntInf | Incumbent    BestBd   Gap | It/Node Time

*    0     0               0       5.1345628    5.13456  0.00%     -    0s

Explored 0 nodes (432 simplex iterations) in 0.23 seconds
Thread count was 4 (of 4 available processors)

Optimal solution found (tolerance 1.00e-04)
Best objective 5.134562773962e+00, best bound 5.134562773962e+00, gap 0.0%

Gurobi 6.5.1 (win64) logging started 04/04/16 18:42:44

Warning: variable name ":_to_E00" has a colon
Warning: constraint name ":_mapped_once" has a colon
Warning: to let Gurobi read it back, use rlp format
Optimize a model with 202 rows, 9360 columns and 18720 nonzeros
Coefficient statistics:
  Matrix range    [1e+00, 1e+00]
  Objective range [5e-02, 1e-01]
  Bounds range    [1e+00, 1e+00]
  RHS range       [1e+00, 1e+00]
Found heuristic solution: objective 6.0018
Presolve time: 0.05s
Presolved: 202 rows, 9360 columns, 18720 nonzeros
Variable types: 0 continuous, 9360 integer (9360 binary)

Root relaxation: objective 5.134563e+00, 432 iterations, 0.03 seconds

    Nodes    |    Current Node    |     Objective Bounds      |     Work
 Expl Unexpl |  Obj  Depth IntInf | Incumbent    BestBd   Gap | It/Node Time

*    0     0               0       5.1345628    5.13456  0.00%     -    0s

Explored 0 nodes (432 simplex iterations) in 0.34 seconds
Thread count was 4 (of 4 available processors)

Optimal solution found (tolerance 1.00e-04)
Best objective 5.134562773962e+00, best bound 5.134562773962e+00, gap 0.0%
Warning: variable name ":_to_E00" has a colon
Warning: constraint name ":_mapped_once" has a colon
Warning: to let Gurobi read it back, use rlp format
Optimize a model with 202 rows, 9360 columns and 18720 nonzeros
Coefficient statistics:
  Matrix range    [1e+00, 1e+00]
  Objective range [1e-01, 3e-01]
  Bounds range    [1e+00, 1e+00]
  RHS range       [1e+00, 1e+00]
Found heuristic solution: objective 15.9273
Presolve time: 0.06s
Presolved: 202 rows, 9360 columns, 18720 nonzeros
Variable types: 0 continuous, 9360 integer (9360 binary)

Root relaxation: objective 1.265453e+01, 349 iterations, 0.04 seconds

    Nodes    |    Current Node    |     Objective Bounds      |     Work
 Expl Unexpl |  Obj  Depth IntInf | Incumbent    BestBd   Gap | It/Node Time

*    0     0               0      12.6545328   12.65453  0.00%     -    0s

Explored 0 nodes (349 simplex iterations) in 0.43 seconds
Thread count was 4 (of 4 available processors)

Optimal solution found (tolerance 1.00e-04)
Best objective 1.265453280000e+01, best bound 1.265453280000e+01, gap 0.0%

Gurobi 6.5.1 (win64) logging started 04/04/16 19:03:15

Warning: variable name ":_to_E00" has a colon
Warning: constraint name ":_mapped_once" has a colon
Warning: to let Gurobi read it back, use rlp format
Optimize a model with 202 rows, 9360 columns and 18720 nonzeros
Model has 435188 quadratic objective terms
Coefficient statistics:
  Matrix range    [1e+00, 1e+00]
  Objective range [5e-02, 1e-01]
  Bounds range    [1e+00, 1e+00]
  RHS range       [1e+00, 1e+00]
Found heuristic solution: objective 5.91426
Modified 5850 Q diagonals
Presolve time: 0.26s
Presolved: 202 rows, 9360 columns, 18720 nonzeros
Presolved model has 441038 quadratic objective terms
Variable types: 0 continuous, 9360 integer (9360 binary)

Root simplex log...

Iteration    Objective       Primal Inf.    Dual Inf.      Time
    2060   -7.9525389e+00   0.000000e+00   3.231931e+00      6s
    2617   -7.9641380e+00   0.000000e+00   7.749724e-03     11s
    2943   -7.1900156e+00   2.938346e+01   0.000000e+00     17s
    3718   -6.1827213e+00   7.769452e+00   0.000000e+00     23s
    3926   -6.1594439e+00   2.671792e+00   0.000000e+00     25s
    4392   -6.1510844e+00   4.650784e-04   0.000000e+00     32s
    4401   -6.1510844e+00   0.000000e+00   0.000000e+00     38s

Root relaxation: objective -6.151084e+00, 4401 iterations, 37.59 seconds

    Nodes    |    Current Node    |     Objective Bounds      |     Work
 Expl Unexpl |  Obj  Depth IntInf | Incumbent    BestBd   Gap | It/Node Time

     0     0   -6.15108    0 2571    5.91426   -6.15108   204%     -   37s
H    0     0                       5.5877216   -6.15108   210%     -   38s
H    0     0                       5.5753479   -6.15108   210%     -   39s
H    0     0                       5.1627220   -6.15108   219%     -   39s
H    0     0                       5.1534347   -6.15108   219%     -   43s
H    0     2                       5.1529016   -6.15108   219%     -   98s
     0     2   -6.15108    0 2571    5.15290   -6.15108   219%     -   98s
     1     3   -6.15055    1 2573    5.15290   -6.15055   219%   5.0  100s
     4     6   -6.15036    4 2575    5.15290   -6.15036   219%   3.8  108s
     8    10   -6.14959    6 2574    5.15290   -6.14959   219%  19.0  111s
    12    13   -6.14945    8 2578    5.15290   -6.14945   219%  14.5  115s
    20    21   -6.14819   12 2576    5.15290   -6.14819   219%   9.8  122s
    22    23   -6.14788   13 2575    5.15290   -6.14788   219%   9.0  125s
    28    29   -6.14695   16 2573    5.15290   -6.14695   219%   7.6  132s
H   29    30                       5.1522843   -6.14695   219%   7.4  132s
    32    33   -6.14636   18 2573    5.15228   -6.14636   219%   7.1  137s
    36    37   -6.14610   20 2572    5.15228   -6.14610   219%   6.6  141s
    42    43   -6.14542   23 2570    5.15228   -6.14542   219%   6.0  146s
    48    49   -6.14480   26 2569    5.15228   -6.14480   219%   5.6  151s
    54    55   -6.14440   28 2568    5.15228   -6.14440   219%   5.2  155s
H   57    58                       5.1517232   -6.14423   219%   5.0  159s
H   58    59                       5.1515829   -6.14406   219%   5.0  159s
    59    60   -6.14406   30 2566    5.15158   -6.14406   219%   5.0  161s
    68    69   -6.14360   33 2564    5.15158   -6.14360   219%   4.8  166s
    77    78   -6.14315   36 2563    5.15158   -6.14315   219%   4.7  171s
    80    81   -6.14217   37 2562    5.15158   -6.14217   219%   4.7  175s
H   86    87                       5.1511339   -6.14047   219%   4.5  180s
    92    93   -6.13837   41 2561    5.15113   -6.13837   219%   4.5  185s
    98    99   -6.13626   43 2559    5.15113   -6.13626   219%   4.3  190s
   110   111   -6.13297   46 2556    5.15113   -6.13297   219%   4.1  196s
   114   115   -6.13179   47 2556    5.15113   -6.13179   219%   4.1  200s
   126   127   -6.12955   50 2554    5.15113   -6.12955   219%   3.9  207s
   130   131   -6.12800   52 2555    5.15113   -6.12800   219%   4.0  210s
   143   144   -6.12748   56 2551    5.15113   -6.12748   219%   3.9  216s
   153   154   -6.12714   59 2550    5.15113   -6.12714   219%   3.8  221s
   157   158   -6.12702   60 2549    5.15113   -6.12702   219%   3.8  225s
   167   168   -6.12569   64 2547    5.15113   -6.12569   219%   3.8  231s
